09-routing/solutions/XSH-n20-k4-27.opt.sol
Route #1: 15 1 12 17 3
Route #2: 4 13 10 19 5
Route #3: 16 20 8 11
Route #4: 14 9 18 2 6 7
Cost 540
